WARNING: for repeatability, setting FPU to use double precision
============================[ Problem Statistics ]=============================
|                                                                             |
|  Number of symmetries:          39                                          |
|  Number of invertingSyms:        0                                          |
|  Number of variables:           420                                         |
|  Number of clauses:            4221                                         |
|  Parse time:                   0.00 s                                       |
|                                                                             |
============================[ Search Statistics ]==============================
| Conflicts |          ORIGINAL         |          LEARNT          | Progress |
|           |    Vars  Clauses Literals |    Limit  Clauses Lit/Cl |          |
===============================================================================
|       100 |     420     4221     8820 |     1547      104    146 |  0.001 % |
|       250 |     420     4221     8820 |     1702      308    101 |  0.001 % |
|       475 |     420     4221     8820 |     1872      562     91 |  0.001 % |
|       812 |     420     4221     8820 |     2059     1046     91 |  0.001 % |
|      1318 |     420     4221     8820 |     2265     1685     95 |  0.001 % |
|      2077 |     420     4221     8820 |     2492     1572     91 |  0.001 % |
|      3216 |     420     4221     8820 |     2741     1814    103 |  0.001 % |
|      4924 |     420     4221     8820 |     3016     2706    117 |  0.001 % |
|      7486 |     420     4221     8820 |     3317     2659    135 |  0.012 % |
|     11330 |     420     4221     8820 |     3649     2315    154 |  0.001 % |
|     17096 |     420     4221     8820 |     4014     3945    163 |  0.001 % |
|     25745 |     420     4221     8820 |     4415     3251    166 |  0.001 % |
|     38719 |     420     4221     8820 |     4857     3095    172 |  0.001 % |
|     58180 |     420     4221     8820 |     5343     3548    140 |  0.001 % |
|     87372 |     420     4221     8820 |     5877     3972    168 |  0.001 % |
|    131161 |     420     4221     8820 |     6465     4990    171 |  0.001 % |
|    196845 |     420     4221     8820 |     7111     3860    176 |  0.001 % |
|    295371 |     420     4221     8820 |     7822     5123    181 |  0.001 % |
|    443160 |     420     4221     8820 |     8605     5875    164 |  0.001 % |
|    664843 |     420     4221     8820 |     9465     7346    170 |  0.001 % |
|    997368 |     420     4221     8820 |    10412     9357    179 |  0.001 % |
|   1496156 |     420     4221     8820 |    11453    10518    170 |  0.001 % |
|   2244338 |     420     4221     8820 |    12598    10126    165 |  0.001 % |
|   3366612 |     420     4221     8820 |    13858    11866    172 |  0.001 % |
|   5050023 |     420     4221     8820 |    15244    13882    214 |  0.001 % |
|   7575139 |     420     4221     8820 |    16768    10366    142 |  0.001 % |
|  11362814 |     420     4221     8820 |    18445    13294    216 |  0.001 % |
|  17044326 |     420     4221     8820 |    20290    13353    193 |  0.001 % |
|  25566595 |     420     4221     8820 |    22319    19206    134 |  0.001 % |
|  38349998 |     420     4221     8820 |    24551    12017    159 |  0.001 % |
===============================================================================
restarts              : 54216
conflicts             : 38959968       (7664 /sec)
symconflicts          : 2682702        (528 /sec)
decisions             : 63732941       (0.00 % random) (12536 /sec)
propagations          : 821626906      (161617 /sec)
sympropagations       : 15246513       (2999 /sec)
conflict literals     : 6688255978     (7.32 % deleted)
Memory used           : 152.00 MB
CPU time              : 5083.8 s

INDETERMINATE
